(set-info :category "industrial")
(set-info :status sat)
(declare-fun x01 () (_ BitVec 8))
(declare-fun x02 () (_ BitVec 8))
(declare-fun x05 () (_ BitVec 8))
(declare-fun x08 () (_ BitVec 8))
(declare-fun x10 () (_ BitVec 8))
(declare-fun x11 () (_ BitVec 8))
(declare-fun x12 () (_ BitVec 8))
(declare-fun x13 () (_ BitVec 8))
(declare-fun x14 () (_ BitVec 8))
(declare-fun x18 () (_ BitVec 8))
(declare-fun x21 () (_ BitVec 8))
(declare-fun x24 () (_ BitVec 8))
(declare-fun x26 () (_ BitVec 8))
(declare-fun x27 () (_ BitVec 8))
(declare-fun x28 () (_ BitVec 8))
(declare-fun x31 () (_ BitVec 8))
(declare-fun x32 () (_ BitVec 8))
(declare-fun x33 () (_ BitVec 8))
(declare-fun x34 () (_ BitVec 8))
(declare-fun x35 () (_ BitVec 8))
(declare-fun x36 () (_ BitVec 8))
(declare-fun x38 () (_ BitVec 8))
(declare-fun x44 () (_ BitVec 8))
(declare-fun x45 () (_ BitVec 8))
(declare-fun x46 () (_ BitVec 8))
(declare-fun x47 () (_ BitVec 8))
(declare-fun x52 () (_ BitVec 8))
(declare-fun x53 () (_ BitVec 8))
(declare-fun x57 () (_ BitVec 8))
(declare-fun x58 () (_ BitVec 8))
(declare-fun x62 () (_ BitVec 8))
(declare-fun x63 () (_ BitVec 8))
(declare-fun x64 () (_ BitVec 8))
(declare-fun x67 () (_ BitVec 8))
(declare-fun x70 () (_ BitVec 8))
(declare-fun x71 () (_ BitVec 8))
(declare-fun x72 () (_ BitVec 8))
(declare-fun x73 () (_ BitVec 8))
(declare-fun x75 () (_ BitVec 8))
(declare-fun x76 () (_ BitVec 8))
(declare-fun x80 () (_ BitVec 8))
(declare-fun x81 () (_ BitVec 8))
(declare-fun x82 () (_ BitVec 8))
(declare-fun x84 () (_ BitVec 8))
(declare-fun x85 () (_ BitVec 8))
(declare-fun x88 () (_ BitVec 8))
(assert (bvult x01 (_ bv9 8)))
(assert (bvult x02 (_ bv9 8)))
(assert (bvult x05 (_ bv9 8)))
(assert (bvult x08 (_ bv9 8)))
(assert (bvult x10 (_ bv9 8)))
(assert (bvult x11 (_ bv9 8)))
(assert (bvult x12 (_ bv9 8)))
(assert (bvult x13 (_ bv9 8)))
(assert (bvult x14 (_ bv9 8)))
(assert (bvult x18 (_ bv9 8)))
(assert (bvult x21 (_ bv9 8)))
(assert (bvult x24 (_ bv9 8)))
(assert (bvult x26 (_ bv9 8)))
(assert (bvult x27 (_ bv9 8)))
(assert (bvult x28 (_ bv9 8)))
(assert (bvult x31 (_ bv9 8)))
(assert (bvult x32 (_ bv9 8)))
(assert (bvult x33 (_ bv9 8)))
(assert (bvult x34 (_ bv9 8)))
(assert (bvult x35 (_ bv9 8)))
(assert (bvult x36 (_ bv9 8)))
(assert (bvult x38 (_ bv9 8)))
(assert (bvult x44 (_ bv9 8)))
(assert (bvult x45 (_ bv9 8)))
(assert (bvult x46 (_ bv9 8)))
(assert (bvult x47 (_ bv9 8)))
(assert (bvult x52 (_ bv9 8)))
(assert (bvult x53 (_ bv9 8)))
(assert (bvult x57 (_ bv9 8)))
(assert (bvult x58 (_ bv9 8)))
(assert (bvult x62 (_ bv9 8)))
(assert (bvult x63 (_ bv9 8)))
(assert (bvult x64 (_ bv9 8)))
(assert (bvult x67 (_ bv9 8)))
(assert (bvult x70 (_ bv9 8)))
(assert (bvult x71 (_ bv9 8)))
(assert (bvult x72 (_ bv9 8)))
(assert (bvult x73 (_ bv9 8)))
(assert (bvult x75 (_ bv9 8)))
(assert (bvult x76 (_ bv9 8)))
(assert (bvult x80 (_ bv9 8)))
(assert (bvult x81 (_ bv9 8)))
(assert (bvult x82 (_ bv9 8)))
(assert (bvult x84 (_ bv9 8)))
(assert (bvult x85 (_ bv9 8)))
(assert (bvult x88 (_ bv9 8)))
(assert (not (= (_ bv7 8) x01)))
(assert (not (= (_ bv7 8) x02)))
(assert (not (= (_ bv7 8) (_ bv9 8))))
(assert (not (= (_ bv7 8) (_ bv1 8))))
(assert (not (= (_ bv7 8) x05)))
(assert (not (= (_ bv7 8) (_ bv8 8))))
(assert (not (= (_ bv7 8) (_ bv6 8))))
(assert (not (= (_ bv7 8) x08)))
(assert (not (= x01 x02)))
(assert (not (= x01 (_ bv9 8))))
(assert (not (= x01 (_ bv1 8))))
(assert (not (= x01 x05)))
(assert (not (= x01 (_ bv8 8))))
(assert (not (= x01 (_ bv6 8))))
(assert (not (= x01 x08)))
(assert (not (= x02 (_ bv9 8))))
(assert (not (= x02 (_ bv1 8))))
(assert (not (= x02 x05)))
(assert (not (= x02 (_ bv8 8))))
(assert (not (= x02 (_ bv6 8))))
(assert (not (= x02 x08)))
(assert (not (= (_ bv9 8) (_ bv1 8))))
(assert (not (= (_ bv9 8) x05)))
(assert (not (= (_ bv9 8) (_ bv8 8))))
(assert (not (= (_ bv9 8) (_ bv6 8))))
(assert (not (= (_ bv9 8) x08)))
(assert (not (= (_ bv1 8) x05)))
(assert (not (= (_ bv1 8) (_ bv8 8))))
(assert (not (= (_ bv1 8) (_ bv6 8))))
(assert (not (= (_ bv1 8) x08)))
(assert (not (= x05 (_ bv8 8))))
(assert (not (= x05 (_ bv6 8))))
(assert (not (= x05 x08)))
(assert (not (= (_ bv8 8) (_ bv6 8))))
(assert (not (= (_ bv8 8) x08)))
(assert (not (= (_ bv6 8) x08)))
(assert (not (= x10 x11)))
(assert (not (= x10 x12)))
(assert (not (= x10 x13)))
(assert (not (= x10 x14)))
(assert (not (= x10 (_ bv4 8))))
(assert (not (= x10 (_ bv3 8))))
(assert (not (= x10 (_ bv5 8))))
(assert (not (= x10 x18)))
(assert (not (= x11 x12)))
(assert (not (= x11 x13)))
(assert (not (= x11 x14)))
(assert (not (= x11 (_ bv4 8))))
(assert (not (= x11 (_ bv3 8))))
(assert (not (= x11 (_ bv5 8))))
(assert (not (= x11 x18)))
(assert (not (= x12 x13)))
(assert (not (= x12 x14)))
(assert (not (= x12 (_ bv4 8))))
(assert (not (= x12 (_ bv3 8))))
(assert (not (= x12 (_ bv5 8))))
(assert (not (= x12 x18)))
(assert (not (= x13 x14)))
(assert (not (= x13 (_ bv4 8))))
(assert (not (= x13 (_ bv3 8))))
(assert (not (= x13 (_ bv5 8))))
(assert (not (= x13 x18)))
(assert (not (= x14 (_ bv4 8))))
(assert (not (= x14 (_ bv3 8))))
(assert (not (= x14 (_ bv5 8))))
(assert (not (= x14 x18)))
(assert (not (= (_ bv4 8) (_ bv3 8))))
(assert (not (= (_ bv4 8) (_ bv5 8))))
(assert (not (= (_ bv4 8) x18)))
(assert (not (= (_ bv3 8) (_ bv5 8))))
(assert (not (= (_ bv3 8) x18)))
(assert (not (= (_ bv5 8) x18)))
(assert (not (= (_ bv1 8) x21)))
(assert (not (= (_ bv1 8) (_ bv4 8))))
(assert (not (= (_ bv1 8) (_ bv3 8))))
(assert (not (= (_ bv1 8) x24)))
(assert (not (= (_ bv1 8) (_ bv6 8))))
(assert (not (= (_ bv1 8) x26)))
(assert (not (= (_ bv1 8) x27)))
(assert (not (= (_ bv1 8) x28)))
(assert (not (= x21 (_ bv4 8))))
(assert (not (= x21 (_ bv3 8))))
(assert (not (= x21 x24)))
(assert (not (= x21 (_ bv6 8))))
(assert (not (= x21 x26)))
(assert (not (= x21 x27)))
(assert (not (= x21 x28)))
(assert (not (= (_ bv4 8) (_ bv3 8))))
(assert (not (= (_ bv4 8) x24)))
(assert (not (= (_ bv4 8) (_ bv6 8))))
(assert (not (= (_ bv4 8) x26)))
(assert (not (= (_ bv4 8) x27)))
(assert (not (= (_ bv4 8) x28)))
(assert (not (= (_ bv3 8) x24)))
(assert (not (= (_ bv3 8) (_ bv6 8))))
(assert (not (= (_ bv3 8) x26)))
(assert (not (= (_ bv3 8) x27)))
(assert (not (= (_ bv3 8) x28)))
(assert (not (= x24 (_ bv6 8))))
(assert (not (= x24 x26)))
(assert (not (= x24 x27)))
(assert (not (= x24 x28)))
(assert (not (= (_ bv6 8) x26)))
(assert (not (= (_ bv6 8) x27)))
(assert (not (= (_ bv6 8) x28)))
(assert (not (= x26 x27)))
(assert (not (= x26 x28)))
(assert (not (= x27 x28)))
(assert (not (= (_ bv4 8) x31)))
(assert (not (= (_ bv4 8) x32)))
(assert (not (= (_ bv4 8) x33)))
(assert (not (= (_ bv4 8) x34)))
(assert (not (= (_ bv4 8) x35)))
(assert (not (= (_ bv4 8) x36)))
(assert (not (= (_ bv4 8) (_ bv1 8))))
(assert (not (= (_ bv4 8) x38)))
(assert (not (= x31 x32)))
(assert (not (= x31 x33)))
(assert (not (= x31 x34)))
(assert (not (= x31 x35)))
(assert (not (= x31 x36)))
(assert (not (= x31 (_ bv1 8))))
(assert (not (= x31 x38)))
(assert (not (= x32 x33)))
(assert (not (= x32 x34)))
(assert (not (= x32 x35)))
(assert (not (= x32 x36)))
(assert (not (= x32 (_ bv1 8))))
(assert (not (= x32 x38)))
(assert (not (= x33 x34)))
(assert (not (= x33 x35)))
(assert (not (= x33 x36)))
(assert (not (= x33 (_ bv1 8))))
(assert (not (= x33 x38)))
(assert (not (= x34 x35)))
(assert (not (= x34 x36)))
(assert (not (= x34 (_ bv1 8))))
(assert (not (= x34 x38)))
(assert (not (= x35 x36)))
(assert (not (= x35 (_ bv1 8))))
(assert (not (= x35 x38)))
(assert (not (= x36 (_ bv1 8))))
(assert (not (= x36 x38)))
(assert (not (= (_ bv1 8) x38)))
(assert (not (= (_ bv8 8) (_ bv3 8))))
(assert (not (= (_ bv8 8) (_ bv5 8))))
(assert (not (= (_ bv8 8) (_ bv2 8))))
(assert (not (= (_ bv8 8) x44)))
(assert (not (= (_ bv8 8) x45)))
(assert (not (= (_ bv8 8) x46)))
(assert (not (= (_ bv8 8) x47)))
(assert (not (= (_ bv8 8) (_ bv9 8))))
(assert (not (= (_ bv3 8) (_ bv5 8))))
(assert (not (= (_ bv3 8) (_ bv2 8))))
(assert (not (= (_ bv3 8) x44)))
(assert (not (= (_ bv3 8) x45)))
(assert (not (= (_ bv3 8) x46)))
(assert (not (= (_ bv3 8) x47)))
(assert (not (= (_ bv3 8) (_ bv9 8))))
(assert (not (= (_ bv5 8) (_ bv2 8))))
(assert (not (= (_ bv5 8) x44)))
(assert (not (= (_ bv5 8) x45)))
(assert (not (= (_ bv5 8) x46)))
(assert (not (= (_ bv5 8) x47)))
(assert (not (= (_ bv5 8) (_ bv9 8))))
(assert (not (= (_ bv2 8) x44)))
(assert (not (= (_ bv2 8) x45)))
(assert (not (= (_ bv2 8) x46)))
(assert (not (= (_ bv2 8) x47)))
(assert (not (= (_ bv2 8) (_ bv9 8))))
(assert (not (= x44 x45)))
(assert (not (= x44 x46)))
(assert (not (= x44 x47)))
(assert (not (= x44 (_ bv9 8))))
(assert (not (= x45 x46)))
(assert (not (= x45 x47)))
(assert (not (= x45 (_ bv9 8))))
(assert (not (= x46 x47)))
(assert (not (= x46 (_ bv9 8))))
(assert (not (= x47 (_ bv9 8))))
(assert (not (= (_ bv6 8) (_ bv1 8))))
(assert (not (= (_ bv6 8) x52)))
(assert (not (= (_ bv6 8) x53)))
(assert (not (= (_ bv6 8) (_ bv8 8))))
(assert (not (= (_ bv6 8) (_ bv7 8))))
(assert (not (= (_ bv6 8) (_ bv4 8))))
(assert (not (= (_ bv6 8) x57)))
(assert (not (= (_ bv6 8) x58)))
(assert (not (= (_ bv1 8) x52)))
(assert (not (= (_ bv1 8) x53)))
(assert (not (= (_ bv1 8) (_ bv8 8))))
(assert (not (= (_ bv1 8) (_ bv7 8))))
(assert (not (= (_ bv1 8) (_ bv4 8))))
(assert (not (= (_ bv1 8) x57)))
(assert (not (= (_ bv1 8) x58)))
(assert (not (= x52 x53)))
(assert (not (= x52 (_ bv8 8))))
(assert (not (= x52 (_ bv7 8))))
(assert (not (= x52 (_ bv4 8))))
(assert (not (= x52 x57)))
(assert (not (= x52 x58)))
(assert (not (= x53 (_ bv8 8))))
(assert (not (= x53 (_ bv7 8))))
(assert (not (= x53 (_ bv4 8))))
(assert (not (= x53 x57)))
(assert (not (= x53 x58)))
(assert (not (= (_ bv8 8) (_ bv7 8))))
(assert (not (= (_ bv8 8) (_ bv4 8))))
(assert (not (= (_ bv8 8) x57)))
(assert (not (= (_ bv8 8) x58)))
(assert (not (= (_ bv7 8) (_ bv4 8))))
(assert (not (= (_ bv7 8) x57)))
(assert (not (= (_ bv7 8) x58)))
(assert (not (= (_ bv4 8) x57)))
(assert (not (= (_ bv4 8) x58)))
(assert (not (= x57 x58)))
(assert (not (= (_ bv2 8) (_ bv9 8))))
(assert (not (= (_ bv2 8) x62)))
(assert (not (= (_ bv2 8) x63)))
(assert (not (= (_ bv2 8) x64)))
(assert (not (= (_ bv2 8) (_ bv5 8))))
(assert (not (= (_ bv2 8) (_ bv1 8))))
(assert (not (= (_ bv2 8) x67)))
(assert (not (= (_ bv2 8) (_ bv7 8))))
(assert (not (= (_ bv9 8) x62)))
(assert (not (= (_ bv9 8) x63)))
(assert (not (= (_ bv9 8) x64)))
(assert (not (= (_ bv9 8) (_ bv5 8))))
(assert (not (= (_ bv9 8) (_ bv1 8))))
(assert (not (= (_ bv9 8) x67)))
(assert (not (= (_ bv9 8) (_ bv7 8))))
(assert (not (= x62 x63)))
(assert (not (= x62 x64)))
(assert (not (= x62 (_ bv5 8))))
(assert (not (= x62 (_ bv1 8))))
(assert (not (= x62 x67)))
(assert (not (= x62 (_ bv7 8))))
(assert (not (= x63 x64)))
(assert (not (= x63 (_ bv5 8))))
(assert (not (= x63 (_ bv1 8))))
(assert (not (= x63 x67)))
(assert (not (= x63 (_ bv7 8))))
(assert (not (= x64 (_ bv5 8))))
(assert (not (= x64 (_ bv1 8))))
(assert (not (= x64 x67)))
(assert (not (= x64 (_ bv7 8))))
(assert (not (= (_ bv5 8) (_ bv1 8))))
(assert (not (= (_ bv5 8) x67)))
(assert (not (= (_ bv5 8) (_ bv7 8))))
(assert (not (= (_ bv1 8) x67)))
(assert (not (= (_ bv1 8) (_ bv7 8))))
(assert (not (= x67 (_ bv7 8))))
(assert (not (= x70 x71)))
(assert (not (= x70 x72)))
(assert (not (= x70 x73)))
(assert (not (= x70 (_ bv6 8))))
(assert (not (= x70 x75)))
(assert (not (= x70 x76)))
(assert (not (= x70 (_ bv4 8))))
(assert (not (= x70 (_ bv5 8))))
(assert (not (= x71 x72)))
(assert (not (= x71 x73)))
(assert (not (= x71 (_ bv6 8))))
(assert (not (= x71 x75)))
(assert (not (= x71 x76)))
(assert (not (= x71 (_ bv4 8))))
(assert (not (= x71 (_ bv5 8))))
(assert (not (= x72 x73)))
(assert (not (= x72 (_ bv6 8))))
(assert (not (= x72 x75)))
(assert (not (= x72 x76)))
(assert (not (= x72 (_ bv4 8))))
(assert (not (= x72 (_ bv5 8))))
(assert (not (= x73 (_ bv6 8))))
(assert (not (= x73 x75)))
(assert (not (= x73 x76)))
(assert (not (= x73 (_ bv4 8))))
(assert (not (= x73 (_ bv5 8))))
(assert (not (= (_ bv6 8) x75)))
(assert (not (= (_ bv6 8) x76)))
(assert (not (= (_ bv6 8) (_ bv4 8))))
(assert (not (= (_ bv6 8) (_ bv5 8))))
(assert (not (= x75 x76)))
(assert (not (= x75 (_ bv4 8))))
(assert (not (= x75 (_ bv5 8))))
(assert (not (= x76 (_ bv4 8))))
(assert (not (= x76 (_ bv5 8))))
(assert (not (= (_ bv4 8) (_ bv5 8))))
(assert (not (= x80 x81)))
(assert (not (= x80 x82)))
(assert (not (= x80 (_ bv7 8))))
(assert (not (= x80 x84)))
(assert (not (= x80 x85)))
(assert (not (= x80 (_ bv9 8))))
(assert (not (= x80 (_ bv3 8))))
(assert (not (= x80 x88)))
(assert (not (= x81 x82)))
(assert (not (= x81 (_ bv7 8))))
(assert (not (= x81 x84)))
(assert (not (= x81 x85)))
(assert (not (= x81 (_ bv9 8))))
(assert (not (= x81 (_ bv3 8))))
(assert (not (= x81 x88)))
(assert (not (= x82 (_ bv7 8))))
(assert (not (= x82 x84)))
(assert (not (= x82 x85)))
(assert (not (= x82 (_ bv9 8))))
(assert (not (= x82 (_ bv3 8))))
(assert (not (= x82 x88)))
(assert (not (= (_ bv7 8) x84)))
(assert (not (= (_ bv7 8) x85)))
(assert (not (= (_ bv7 8) (_ bv9 8))))
(assert (not (= (_ bv7 8) (_ bv3 8))))
(assert (not (= (_ bv7 8) x88)))
(assert (not (= x84 x85)))
(assert (not (= x84 (_ bv9 8))))
(assert (not (= x84 (_ bv3 8))))
(assert (not (= x84 x88)))
(assert (not (= x85 (_ bv9 8))))
(assert (not (= x85 (_ bv3 8))))
(assert (not (= x85 x88)))
(assert (not (= (_ bv9 8) (_ bv3 8))))
(assert (not (= (_ bv9 8) x88)))
(assert (not (= (_ bv3 8) x88)))
(assert (not (= (_ bv7 8) x10)))
(assert (not (= (_ bv7 8) (_ bv1 8))))
(assert (not (= (_ bv7 8) (_ bv4 8))))
(assert (not (= (_ bv7 8) (_ bv8 8))))
(assert (not (= (_ bv7 8) (_ bv6 8))))
(assert (not (= (_ bv7 8) (_ bv2 8))))
(assert (not (= (_ bv7 8) x70)))
(assert (not (= (_ bv7 8) x80)))
(assert (not (= x10 (_ bv1 8))))
(assert (not (= x10 (_ bv4 8))))
(assert (not (= x10 (_ bv8 8))))
(assert (not (= x10 (_ bv6 8))))
(assert (not (= x10 (_ bv2 8))))
(assert (not (= x10 x70)))
(assert (not (= x10 x80)))
(assert (not (= (_ bv1 8) (_ bv4 8))))
(assert (not (= (_ bv1 8) (_ bv8 8))))
(assert (not (= (_ bv1 8) (_ bv6 8))))
(assert (not (= (_ bv1 8) (_ bv2 8))))
(assert (not (= (_ bv1 8) x70)))
(assert (not (= (_ bv1 8) x80)))
(assert (not (= (_ bv4 8) (_ bv8 8))))
(assert (not (= (_ bv4 8) (_ bv6 8))))
(assert (not (= (_ bv4 8) (_ bv2 8))))
(assert (not (= (_ bv4 8) x70)))
(assert (not (= (_ bv4 8) x80)))
(assert (not (= (_ bv8 8) (_ bv6 8))))
(assert (not (= (_ bv8 8) (_ bv2 8))))
(assert (not (= (_ bv8 8) x70)))
(assert (not (= (_ bv8 8) x80)))
(assert (not (= (_ bv6 8) (_ bv2 8))))
(assert (not (= (_ bv6 8) x70)))
(assert (not (= (_ bv6 8) x80)))
(assert (not (= (_ bv2 8) x70)))
(assert (not (= (_ bv2 8) x80)))
(assert (not (= x70 x80)))
(assert (not (= x01 x11)))
(assert (not (= x01 x21)))
(assert (not (= x01 x31)))
(assert (not (= x01 (_ bv3 8))))
(assert (not (= x01 (_ bv1 8))))
(assert (not (= x01 (_ bv9 8))))
(assert (not (= x01 x71)))
(assert (not (= x01 x81)))
(assert (not (= x11 x21)))
(assert (not (= x11 x31)))
(assert (not (= x11 (_ bv3 8))))
(assert (not (= x11 (_ bv1 8))))
(assert (not (= x11 (_ bv9 8))))
(assert (not (= x11 x71)))
(assert (not (= x11 x81)))
(assert (not (= x21 x31)))
(assert (not (= x21 (_ bv3 8))))
(assert (not (= x21 (_ bv1 8))))
(assert (not (= x21 (_ bv9 8))))
(assert (not (= x21 x71)))
(assert (not (= x21 x81)))
(assert (not (= x31 (_ bv3 8))))
(assert (not (= x31 (_ bv1 8))))
(assert (not (= x31 (_ bv9 8))))
(assert (not (= x31 x71)))
(assert (not (= x31 x81)))
(assert (not (= (_ bv3 8) (_ bv1 8))))
(assert (not (= (_ bv3 8) (_ bv9 8))))
(assert (not (= (_ bv3 8) x71)))
(assert (not (= (_ bv3 8) x81)))
(assert (not (= (_ bv1 8) (_ bv9 8))))
(assert (not (= (_ bv1 8) x71)))
(assert (not (= (_ bv1 8) x81)))
(assert (not (= (_ bv9 8) x71)))
(assert (not (= (_ bv9 8) x81)))
(assert (not (= x71 x81)))
(assert (not (= x02 x12)))
(assert (not (= x02 (_ bv4 8))))
(assert (not (= x02 x32)))
(assert (not (= x02 (_ bv5 8))))
(assert (not (= x02 x52)))
(assert (not (= x02 x62)))
(assert (not (= x02 x72)))
(assert (not (= x02 x82)))
(assert (not (= x12 (_ bv4 8))))
(assert (not (= x12 x32)))
(assert (not (= x12 (_ bv5 8))))
(assert (not (= x12 x52)))
(assert (not (= x12 x62)))
(assert (not (= x12 x72)))
(assert (not (= x12 x82)))
(assert (not (= (_ bv4 8) x32)))
(assert (not (= (_ bv4 8) (_ bv5 8))))
(assert (not (= (_ bv4 8) x52)))
(assert (not (= (_ bv4 8) x62)))
(assert (not (= (_ bv4 8) x72)))
(assert (not (= (_ bv4 8) x82)))
(assert (not (= x32 (_ bv5 8))))
(assert (not (= x32 x52)))
(assert (not (= x32 x62)))
(assert (not (= x32 x72)))
(assert (not (= x32 x82)))
(assert (not (= (_ bv5 8) x52)))
(assert (not (= (_ bv5 8) x62)))
(assert (not (= (_ bv5 8) x72)))
(assert (not (= (_ bv5 8) x82)))
(assert (not (= x52 x62)))
(assert (not (= x52 x72)))
(assert (not (= x52 x82)))
(assert (not (= x62 x72)))
(assert (not (= x62 x82)))
(assert (not (= x72 x82)))
(assert (not (= (_ bv9 8) x13)))
(assert (not (= (_ bv9 8) (_ bv3 8))))
(assert (not (= (_ bv9 8) x33)))
(assert (not (= (_ bv9 8) (_ bv2 8))))
(assert (not (= (_ bv9 8) x53)))
(assert (not (= (_ bv9 8) x63)))
(assert (not (= (_ bv9 8) x73)))
(assert (not (= (_ bv9 8) (_ bv7 8))))
(assert (not (= x13 (_ bv3 8))))
(assert (not (= x13 x33)))
(assert (not (= x13 (_ bv2 8))))
(assert (not (= x13 x53)))
(assert (not (= x13 x63)))
(assert (not (= x13 x73)))
(assert (not (= x13 (_ bv7 8))))
(assert (not (= (_ bv3 8) x33)))
(assert (not (= (_ bv3 8) (_ bv2 8))))
(assert (not (= (_ bv3 8) x53)))
(assert (not (= (_ bv3 8) x63)))
(assert (not (= (_ bv3 8) x73)))
(assert (not (= (_ bv3 8) (_ bv7 8))))
(assert (not (= x33 (_ bv2 8))))
(assert (not (= x33 x53)))
(assert (not (= x33 x63)))
(assert (not (= x33 x73)))
(assert (not (= x33 (_ bv7 8))))
(assert (not (= (_ bv2 8) x53)))
(assert (not (= (_ bv2 8) x63)))
(assert (not (= (_ bv2 8) x73)))
(assert (not (= (_ bv2 8) (_ bv7 8))))
(assert (not (= x53 x63)))
(assert (not (= x53 x73)))
(assert (not (= x53 (_ bv7 8))))
(assert (not (= x63 x73)))
(assert (not (= x63 (_ bv7 8))))
(assert (not (= x73 (_ bv7 8))))
(assert (not (= (_ bv1 8) x14)))
(assert (not (= (_ bv1 8) x24)))
(assert (not (= (_ bv1 8) x34)))
(assert (not (= (_ bv1 8) x44)))
(assert (not (= (_ bv1 8) (_ bv8 8))))
(assert (not (= (_ bv1 8) x64)))
(assert (not (= (_ bv1 8) (_ bv6 8))))
(assert (not (= (_ bv1 8) x84)))
(assert (not (= x14 x24)))
(assert (not (= x14 x34)))
(assert (not (= x14 x44)))
(assert (not (= x14 (_ bv8 8))))
(assert (not (= x14 x64)))
(assert (not (= x14 (_ bv6 8))))
(assert (not (= x14 x84)))
(assert (not (= x24 x34)))
(assert (not (= x24 x44)))
(assert (not (= x24 (_ bv8 8))))
(assert (not (= x24 x64)))
(assert (not (= x24 (_ bv6 8))))
(assert (not (= x24 x84)))
(assert (not (= x34 x44)))
(assert (not (= x34 (_ bv8 8))))
(assert (not (= x34 x64)))
(assert (not (= x34 (_ bv6 8))))
(assert (not (= x34 x84)))
(assert (not (= x44 (_ bv8 8))))
(assert (not (= x44 x64)))
(assert (not (= x44 (_ bv6 8))))
(assert (not (= x44 x84)))
(assert (not (= (_ bv8 8) x64)))
(assert (not (= (_ bv8 8) (_ bv6 8))))
(assert (not (= (_ bv8 8) x84)))
(assert (not (= x64 (_ bv6 8))))
(assert (not (= x64 x84)))
(assert (not (= (_ bv6 8) x84)))
(assert (not (= x05 (_ bv4 8))))
(assert (not (= x05 (_ bv6 8))))
(assert (not (= x05 x35)))
(assert (not (= x05 x45)))
(assert (not (= x05 (_ bv7 8))))
(assert (not (= x05 (_ bv5 8))))
(assert (not (= x05 x75)))
(assert (not (= x05 x85)))
(assert (not (= (_ bv4 8) (_ bv6 8))))
(assert (not (= (_ bv4 8) x35)))
(assert (not (= (_ bv4 8) x45)))
(assert (not (= (_ bv4 8) (_ bv7 8))))
(assert (not (= (_ bv4 8) (_ bv5 8))))
(assert (not (= (_ bv4 8) x75)))
(assert (not (= (_ bv4 8) x85)))
(assert (not (= (_ bv6 8) x35)))
(assert (not (= (_ bv6 8) x45)))
(assert (not (= (_ bv6 8) (_ bv7 8))))
(assert (not (= (_ bv6 8) (_ bv5 8))))
(assert (not (= (_ bv6 8) x75)))
(assert (not (= (_ bv6 8) x85)))
(assert (not (= x35 x45)))
(assert (not (= x35 (_ bv7 8))))
(assert (not (= x35 (_ bv5 8))))
(assert (not (= x35 x75)))
(assert (not (= x35 x85)))
(assert (not (= x45 (_ bv7 8))))
(assert (not (= x45 (_ bv5 8))))
(assert (not (= x45 x75)))
(assert (not (= x45 x85)))
(assert (not (= (_ bv7 8) (_ bv5 8))))
(assert (not (= (_ bv7 8) x75)))
(assert (not (= (_ bv7 8) x85)))
(assert (not (= (_ bv5 8) x75)))
(assert (not (= (_ bv5 8) x85)))
(assert (not (= x75 x85)))
(assert (not (= (_ bv8 8) (_ bv3 8))))
(assert (not (= (_ bv8 8) x26)))
(assert (not (= (_ bv8 8) x36)))
(assert (not (= (_ bv8 8) x46)))
(assert (not (= (_ bv8 8) (_ bv4 8))))
(assert (not (= (_ bv8 8) (_ bv1 8))))
(assert (not (= (_ bv8 8) x76)))
(assert (not (= (_ bv8 8) (_ bv9 8))))
(assert (not (= (_ bv3 8) x26)))
(assert (not (= (_ bv3 8) x36)))
(assert (not (= (_ bv3 8) x46)))
(assert (not (= (_ bv3 8) (_ bv4 8))))
(assert (not (= (_ bv3 8) (_ bv1 8))))
(assert (not (= (_ bv3 8) x76)))
(assert (not (= (_ bv3 8) (_ bv9 8))))
(assert (not (= x26 x36)))
(assert (not (= x26 x46)))
(assert (not (= x26 (_ bv4 8))))
(assert (not (= x26 (_ bv1 8))))
(assert (not (= x26 x76)))
(assert (not (= x26 (_ bv9 8))))
(assert (not (= x36 x46)))
(assert (not (= x36 (_ bv4 8))))
(assert (not (= x36 (_ bv1 8))))
(assert (not (= x36 x76)))
(assert (not (= x36 (_ bv9 8))))
(assert (not (= x46 (_ bv4 8))))
(assert (not (= x46 (_ bv1 8))))
(assert (not (= x46 x76)))
(assert (not (= x46 (_ bv9 8))))
(assert (not (= (_ bv4 8) (_ bv1 8))))
(assert (not (= (_ bv4 8) x76)))
(assert (not (= (_ bv4 8) (_ bv9 8))))
(assert (not (= (_ bv1 8) x76)))
(assert (not (= (_ bv1 8) (_ bv9 8))))
(assert (not (= x76 (_ bv9 8))))
(assert (not (= (_ bv6 8) (_ bv5 8))))
(assert (not (= (_ bv6 8) x27)))
(assert (not (= (_ bv6 8) (_ bv1 8))))
(assert (not (= (_ bv6 8) x47)))
(assert (not (= (_ bv6 8) x57)))
(assert (not (= (_ bv6 8) x67)))
(assert (not (= (_ bv6 8) (_ bv4 8))))
(assert (not (= (_ bv6 8) (_ bv3 8))))
(assert (not (= (_ bv5 8) x27)))
(assert (not (= (_ bv5 8) (_ bv1 8))))
(assert (not (= (_ bv5 8) x47)))
(assert (not (= (_ bv5 8) x57)))
(assert (not (= (_ bv5 8) x67)))
(assert (not (= (_ bv5 8) (_ bv4 8))))
(assert (not (= (_ bv5 8) (_ bv3 8))))
(assert (not (= x27 (_ bv1 8))))
(assert (not (= x27 x47)))
(assert (not (= x27 x57)))
(assert (not (= x27 x67)))
(assert (not (= x27 (_ bv4 8))))
(assert (not (= x27 (_ bv3 8))))
(assert (not (= (_ bv1 8) x47)))
(assert (not (= (_ bv1 8) x57)))
(assert (not (= (_ bv1 8) x67)))
(assert (not (= (_ bv1 8) (_ bv4 8))))
(assert (not (= (_ bv1 8) (_ bv3 8))))
(assert (not (= x47 x57)))
(assert (not (= x47 x67)))
(assert (not (= x47 (_ bv4 8))))
(assert (not (= x47 (_ bv3 8))))
(assert (not (= x57 x67)))
(assert (not (= x57 (_ bv4 8))))
(assert (not (= x57 (_ bv3 8))))
(assert (not (= x67 (_ bv4 8))))
(assert (not (= x67 (_ bv3 8))))
(assert (not (= (_ bv4 8) (_ bv3 8))))
(assert (not (= x08 x18)))
(assert (not (= x08 x28)))
(assert (not (= x08 x38)))
(assert (not (= x08 (_ bv9 8))))
(assert (not (= x08 x58)))
(assert (not (= x08 (_ bv7 8))))
(assert (not (= x08 (_ bv5 8))))
(assert (not (= x08 x88)))
(assert (not (= x18 x28)))
(assert (not (= x18 x38)))
(assert (not (= x18 (_ bv9 8))))
(assert (not (= x18 x58)))
(assert (not (= x18 (_ bv7 8))))
(assert (not (= x18 (_ bv5 8))))
(assert (not (= x18 x88)))
(assert (not (= x28 x38)))
(assert (not (= x28 (_ bv9 8))))
(assert (not (= x28 x58)))
(assert (not (= x28 (_ bv7 8))))
(assert (not (= x28 (_ bv5 8))))
(assert (not (= x28 x88)))
(assert (not (= x38 (_ bv9 8))))
(assert (not (= x38 x58)))
(assert (not (= x38 (_ bv7 8))))
(assert (not (= x38 (_ bv5 8))))
(assert (not (= x38 x88)))
(assert (not (= (_ bv9 8) x58)))
(assert (not (= (_ bv9 8) (_ bv7 8))))
(assert (not (= (_ bv9 8) (_ bv5 8))))
(assert (not (= (_ bv9 8) x88)))
(assert (not (= x58 (_ bv7 8))))
(assert (not (= x58 (_ bv5 8))))
(assert (not (= x58 x88)))
(assert (not (= (_ bv7 8) (_ bv5 8))))
(assert (not (= (_ bv7 8) x88)))
(assert (not (= (_ bv5 8) x88)))
(assert (not (= (_ bv7 8) x01)))
(assert (not (= (_ bv7 8) x02)))
(assert (not (= (_ bv7 8) x10)))
(assert (not (= (_ bv7 8) x11)))
(assert (not (= (_ bv7 8) x12)))
(assert (not (= (_ bv7 8) (_ bv1 8))))
(assert (not (= (_ bv7 8) x21)))
(assert (not (= (_ bv7 8) (_ bv4 8))))
(assert (not (= x01 x02)))
(assert (not (= x01 x10)))
(assert (not (= x01 x11)))
(assert (not (= x01 x12)))
(assert (not (= x01 (_ bv1 8))))
(assert (not (= x01 x21)))
(assert (not (= x01 (_ bv4 8))))
(assert (not (= x02 x10)))
(assert (not (= x02 x11)))
(assert (not (= x02 x12)))
(assert (not (= x02 (_ bv1 8))))
(assert (not (= x02 x21)))
(assert (not (= x02 (_ bv4 8))))
(assert (not (= x10 x11)))
(assert (not (= x10 x12)))
(assert (not (= x10 (_ bv1 8))))
(assert (not (= x10 x21)))
(assert (not (= x10 (_ bv4 8))))
(assert (not (= x11 x12)))
(assert (not (= x11 (_ bv1 8))))
(assert (not (= x11 x21)))
(assert (not (= x11 (_ bv4 8))))
(assert (not (= x12 (_ bv1 8))))
(assert (not (= x12 x21)))
(assert (not (= x12 (_ bv4 8))))
(assert (not (= (_ bv1 8) x21)))
(assert (not (= (_ bv1 8) (_ bv4 8))))
(assert (not (= x21 (_ bv4 8))))
(assert (not (= (_ bv9 8) (_ bv1 8))))
(assert (not (= (_ bv9 8) x05)))
(assert (not (= (_ bv9 8) x13)))
(assert (not (= (_ bv9 8) x14)))
(assert (not (= (_ bv9 8) (_ bv4 8))))
(assert (not (= (_ bv9 8) (_ bv3 8))))
(assert (not (= (_ bv9 8) x24)))
(assert (not (= (_ bv9 8) (_ bv6 8))))
(assert (not (= (_ bv1 8) x05)))
(assert (not (= (_ bv1 8) x13)))
(assert (not (= (_ bv1 8) x14)))
(assert (not (= (_ bv1 8) (_ bv4 8))))
(assert (not (= (_ bv1 8) (_ bv3 8))))
(assert (not (= (_ bv1 8) x24)))
(assert (not (= (_ bv1 8) (_ bv6 8))))
(assert (not (= x05 x13)))
(assert (not (= x05 x14)))
(assert (not (= x05 (_ bv4 8))))
(assert (not (= x05 (_ bv3 8))))
(assert (not (= x05 x24)))
(assert (not (= x05 (_ bv6 8))))
(assert (not (= x13 x14)))
(assert (not (= x13 (_ bv4 8))))
(assert (not (= x13 (_ bv3 8))))
(assert (not (= x13 x24)))
(assert (not (= x13 (_ bv6 8))))
(assert (not (= x14 (_ bv4 8))))
(assert (not (= x14 (_ bv3 8))))
(assert (not (= x14 x24)))
(assert (not (= x14 (_ bv6 8))))
(assert (not (= (_ bv4 8) (_ bv3 8))))
(assert (not (= (_ bv4 8) x24)))
(assert (not (= (_ bv4 8) (_ bv6 8))))
(assert (not (= (_ bv3 8) x24)))
(assert (not (= (_ bv3 8) (_ bv6 8))))
(assert (not (= x24 (_ bv6 8))))
(assert (not (= (_ bv8 8) (_ bv6 8))))
(assert (not (= (_ bv8 8) x08)))
(assert (not (= (_ bv8 8) (_ bv3 8))))
(assert (not (= (_ bv8 8) (_ bv5 8))))
(assert (not (= (_ bv8 8) x18)))
(assert (not (= (_ bv8 8) x26)))
(assert (not (= (_ bv8 8) x27)))
(assert (not (= (_ bv8 8) x28)))
(assert (not (= (_ bv6 8) x08)))
(assert (not (= (_ bv6 8) (_ bv3 8))))
(assert (not (= (_ bv6 8) (_ bv5 8))))
(assert (not (= (_ bv6 8) x18)))
(assert (not (= (_ bv6 8) x26)))
(assert (not (= (_ bv6 8) x27)))
(assert (not (= (_ bv6 8) x28)))
(assert (not (= x08 (_ bv3 8))))
(assert (not (= x08 (_ bv5 8))))
(assert (not (= x08 x18)))
(assert (not (= x08 x26)))
(assert (not (= x08 x27)))
(assert (not (= x08 x28)))
(assert (not (= (_ bv3 8) (_ bv5 8))))
(assert (not (= (_ bv3 8) x18)))
(assert (not (= (_ bv3 8) x26)))
(assert (not (= (_ bv3 8) x27)))
(assert (not (= (_ bv3 8) x28)))
(assert (not (= (_ bv5 8) x18)))
(assert (not (= (_ bv5 8) x26)))
(assert (not (= (_ bv5 8) x27)))
(assert (not (= (_ bv5 8) x28)))
(assert (not (= x18 x26)))
(assert (not (= x18 x27)))
(assert (not (= x18 x28)))
(assert (not (= x26 x27)))
(assert (not (= x26 x28)))
(assert (not (= x27 x28)))
(assert (not (= (_ bv4 8) x31)))
(assert (not (= (_ bv4 8) x32)))
(assert (not (= (_ bv4 8) (_ bv8 8))))
(assert (not (= (_ bv4 8) (_ bv3 8))))
(assert (not (= (_ bv4 8) (_ bv5 8))))
(assert (not (= (_ bv4 8) (_ bv6 8))))
(assert (not (= (_ bv4 8) (_ bv1 8))))
(assert (not (= (_ bv4 8) x52)))
(assert (not (= x31 x32)))
(assert (not (= x31 (_ bv8 8))))
(assert (not (= x31 (_ bv3 8))))
(assert (not (= x31 (_ bv5 8))))
(assert (not (= x31 (_ bv6 8))))
(assert (not (= x31 (_ bv1 8))))
(assert (not (= x31 x52)))
(assert (not (= x32 (_ bv8 8))))
(assert (not (= x32 (_ bv3 8))))
(assert (not (= x32 (_ bv5 8))))
(assert (not (= x32 (_ bv6 8))))
(assert (not (= x32 (_ bv1 8))))
(assert (not (= x32 x52)))
(assert (not (= (_ bv8 8) (_ bv3 8))))
(assert (not (= (_ bv8 8) (_ bv5 8))))
(assert (not (= (_ bv8 8) (_ bv6 8))))
(assert (not (= (_ bv8 8) (_ bv1 8))))
(assert (not (= (_ bv8 8) x52)))
(assert (not (= (_ bv3 8) (_ bv5 8))))
(assert (not (= (_ bv3 8) (_ bv6 8))))
(assert (not (= (_ bv3 8) (_ bv1 8))))
(assert (not (= (_ bv3 8) x52)))
(assert (not (= (_ bv5 8) (_ bv6 8))))
(assert (not (= (_ bv5 8) (_ bv1 8))))
(assert (not (= (_ bv5 8) x52)))
(assert (not (= (_ bv6 8) (_ bv1 8))))
(assert (not (= (_ bv6 8) x52)))
(assert (not (= (_ bv1 8) x52)))
(assert (not (= x33 x34)))
(assert (not (= x33 x35)))
(assert (not (= x33 (_ bv2 8))))
(assert (not (= x33 x44)))
(assert (not (= x33 x45)))
(assert (not (= x33 x53)))
(assert (not (= x33 (_ bv8 8))))
(assert (not (= x33 (_ bv7 8))))
(assert (not (= x34 x35)))
(assert (not (= x34 (_ bv2 8))))
(assert (not (= x34 x44)))
(assert (not (= x34 x45)))
(assert (not (= x34 x53)))
(assert (not (= x34 (_ bv8 8))))
(assert (not (= x34 (_ bv7 8))))
(assert (not (= x35 (_ bv2 8))))
(assert (not (= x35 x44)))
(assert (not (= x35 x45)))
(assert (not (= x35 x53)))
(assert (not (= x35 (_ bv8 8))))
(assert (not (= x35 (_ bv7 8))))
(assert (not (= (_ bv2 8) x44)))
(assert (not (= (_ bv2 8) x45)))
(assert (not (= (_ bv2 8) x53)))
(assert (not (= (_ bv2 8) (_ bv8 8))))
(assert (not (= (_ bv2 8) (_ bv7 8))))
(assert (not (= x44 x45)))
(assert (not (= x44 x53)))
(assert (not (= x44 (_ bv8 8))))
(assert (not (= x44 (_ bv7 8))))
(assert (not (= x45 x53)))
(assert (not (= x45 (_ bv8 8))))
(assert (not (= x45 (_ bv7 8))))
(assert (not (= x53 (_ bv8 8))))
(assert (not (= x53 (_ bv7 8))))
(assert (not (= (_ bv8 8) (_ bv7 8))))
(assert (not (= x36 (_ bv1 8))))
(assert (not (= x36 x38)))
(assert (not (= x36 x46)))
(assert (not (= x36 x47)))
(assert (not (= x36 (_ bv9 8))))
(assert (not (= x36 (_ bv4 8))))
(assert (not (= x36 x57)))
(assert (not (= x36 x58)))
(assert (not (= (_ bv1 8) x38)))
(assert (not (= (_ bv1 8) x46)))
(assert (not (= (_ bv1 8) x47)))
(assert (not (= (_ bv1 8) (_ bv9 8))))
(assert (not (= (_ bv1 8) (_ bv4 8))))
(assert (not (= (_ bv1 8) x57)))
(assert (not (= (_ bv1 8) x58)))
(assert (not (= x38 x46)))
(assert (not (= x38 x47)))
(assert (not (= x38 (_ bv9 8))))
(assert (not (= x38 (_ bv4 8))))
(assert (not (= x38 x57)))
(assert (not (= x38 x58)))
(assert (not (= x46 x47)))
(assert (not (= x46 (_ bv9 8))))
(assert (not (= x46 (_ bv4 8))))
(assert (not (= x46 x57)))
(assert (not (= x46 x58)))
(assert (not (= x47 (_ bv9 8))))
(assert (not (= x47 (_ bv4 8))))
(assert (not (= x47 x57)))
(assert (not (= x47 x58)))
(assert (not (= (_ bv9 8) (_ bv4 8))))
(assert (not (= (_ bv9 8) x57)))
(assert (not (= (_ bv9 8) x58)))
(assert (not (= (_ bv4 8) x57)))
(assert (not (= (_ bv4 8) x58)))
(assert (not (= x57 x58)))
(assert (not (= (_ bv2 8) (_ bv9 8))))
(assert (not (= (_ bv2 8) x62)))
(assert (not (= (_ bv2 8) x70)))
(assert (not (= (_ bv2 8) x71)))
(assert (not (= (_ bv2 8) x72)))
(assert (not (= (_ bv2 8) x80)))
(assert (not (= (_ bv2 8) x81)))
(assert (not (= (_ bv2 8) x82)))
(assert (not (= (_ bv9 8) x62)))
(assert (not (= (_ bv9 8) x70)))
(assert (not (= (_ bv9 8) x71)))
(assert (not (= (_ bv9 8) x72)))
(assert (not (= (_ bv9 8) x80)))
(assert (not (= (_ bv9 8) x81)))
(assert (not (= (_ bv9 8) x82)))
(assert (not (= x62 x70)))
(assert (not (= x62 x71)))
(assert (not (= x62 x72)))
(assert (not (= x62 x80)))
(assert (not (= x62 x81)))
(assert (not (= x62 x82)))
(assert (not (= x70 x71)))
(assert (not (= x70 x72)))
(assert (not (= x70 x80)))
(assert (not (= x70 x81)))
(assert (not (= x70 x82)))
(assert (not (= x71 x72)))
(assert (not (= x71 x80)))
(assert (not (= x71 x81)))
(assert (not (= x71 x82)))
(assert (not (= x72 x80)))
(assert (not (= x72 x81)))
(assert (not (= x72 x82)))
(assert (not (= x80 x81)))
(assert (not (= x80 x82)))
(assert (not (= x81 x82)))
(assert (not (= x63 x64)))
(assert (not (= x63 (_ bv5 8))))
(assert (not (= x63 x73)))
(assert (not (= x63 (_ bv6 8))))
(assert (not (= x63 x75)))
(assert (not (= x63 (_ bv7 8))))
(assert (not (= x63 x84)))
(assert (not (= x63 x85)))
(assert (not (= x64 (_ bv5 8))))
(assert (not (= x64 x73)))
(assert (not (= x64 (_ bv6 8))))
(assert (not (= x64 x75)))
(assert (not (= x64 (_ bv7 8))))
(assert (not (= x64 x84)))
(assert (not (= x64 x85)))
(assert (not (= (_ bv5 8) x73)))
(assert (not (= (_ bv5 8) (_ bv6 8))))
(assert (not (= (_ bv5 8) x75)))
(assert (not (= (_ bv5 8) (_ bv7 8))))
(assert (not (= (_ bv5 8) x84)))
(assert (not (= (_ bv5 8) x85)))
(assert (not (= x73 (_ bv6 8))))
(assert (not (= x73 x75)))
(assert (not (= x73 (_ bv7 8))))
(assert (not (= x73 x84)))
(assert (not (= x73 x85)))
(assert (not (= (_ bv6 8) x75)))
(assert (not (= (_ bv6 8) (_ bv7 8))))
(assert (not (= (_ bv6 8) x84)))
(assert (not (= (_ bv6 8) x85)))
(assert (not (= x75 (_ bv7 8))))
(assert (not (= x75 x84)))
(assert (not (= x75 x85)))
(assert (not (= (_ bv7 8) x84)))
(assert (not (= (_ bv7 8) x85)))
(assert (not (= x84 x85)))
(assert (not (= (_ bv1 8) x67)))
(assert (not (= (_ bv1 8) (_ bv7 8))))
(assert (not (= (_ bv1 8) x76)))
(assert (not (= (_ bv1 8) (_ bv4 8))))
(assert (not (= (_ bv1 8) (_ bv5 8))))
(assert (not (= (_ bv1 8) (_ bv9 8))))
(assert (not (= (_ bv1 8) (_ bv3 8))))
(assert (not (= (_ bv1 8) x88)))
(assert (not (= x67 (_ bv7 8))))
(assert (not (= x67 x76)))
(assert (not (= x67 (_ bv4 8))))
(assert (not (= x67 (_ bv5 8))))
(assert (not (= x67 (_ bv9 8))))
(assert (not (= x67 (_ bv3 8))))
(assert (not (= x67 x88)))
(assert (not (= (_ bv7 8) x76)))
(assert (not (= (_ bv7 8) (_ bv4 8))))
(assert (not (= (_ bv7 8) (_ bv5 8))))
(assert (not (= (_ bv7 8) (_ bv9 8))))
(assert (not (= (_ bv7 8) (_ bv3 8))))
(assert (not (= (_ bv7 8) x88)))
(assert (not (= x76 (_ bv4 8))))
(assert (not (= x76 (_ bv5 8))))
(assert (not (= x76 (_ bv9 8))))
(assert (not (= x76 (_ bv3 8))))
(assert (not (= x76 x88)))
(assert (not (= (_ bv4 8) (_ bv5 8))))
(assert (not (= (_ bv4 8) (_ bv9 8))))
(assert (not (= (_ bv4 8) (_ bv3 8))))
(assert (not (= (_ bv4 8) x88)))
(assert (not (= (_ bv5 8) (_ bv9 8))))
(assert (not (= (_ bv5 8) (_ bv3 8))))
(assert (not (= (_ bv5 8) x88)))
(assert (not (= (_ bv9 8) (_ bv3 8))))
(assert (not (= (_ bv9 8) x88)))
(assert (not (= (_ bv3 8) x88)))
(check-sat)
(exit)
